50
    1    39    74
    2   401   371
    3   486   461
    4   469   458
    5   333   335
    6   642   592
    7   149   160
    8   378   370
    9   399   384
   10   238   289
   11   446   406
   12     6    66
   13   128   119
   14   170   139
   15   624   583
   16     1    27
   17   109    96
   18   120   111
   19   213   228
   20   285   333
   21   171   176
   22   203   254
   23    40    79
   24   408   389
   25   167   207
   26   501   527
   27   368   333
   28   297   326
   29   230   224
   30   424   462
   31   573   596
   32   170   170
   33   537   582
   34   300   316
   35   280   295
   36   330   360
   37   278   223
   38   292   235
   39     1    23
   40   165   117
   41   455   458
   42   264   288
   43   290   289
   44   458   420
   45   530   498
   46   305   345
   47    28    76
   48   152   176
   49   494   538
   50   218   263
601
